(set-logic QF_UF)
(declare-fun car () Bool)
(declare-fun circuit () Bool)
(declare-fun clk () Bool)
(declare-fun prt () Bool)
(assert (= car car))
(assert (= (not (not car)) car))
(assert (not (= (= car (not (not car))) (= car car))))
(check-sat)
(exit)
